Debug: configOverride contents: IsWeighted_ObjFunc add_break_callback add_generate_reports add_threshold_distance_rssv bw_multiplier capacities cover_mode coverages cust_max_id distance_matrix loc_max_id max_ite_subprob_rssv method method_post_opt method_rssv_fp method_rssv_sp output p seed service size_subproblems_rssv subarea threads time time_cplex time_subprob_rssv weights 
Loading instance...
Scanning input data...
Distance matrix dimensions: 3039 x 3039 = 9235521
Elapsed time: 0 ms

Loading weights...
Skipped line: customer weight coord_x coord_y
Loaded 3038 weights
Loaded 3038 coordinates
Total customer demand: 155824.00
Elapsed time: 35 ms

Loading capacities...
Skipped line: location capacity coord_x coord_y
Loaded 3038 capacities
Loaded 3038 coordinates
Elapsed time: 7 ms

Loading distance matrix...
Computing euclidian distances...
bw multiplier: 0.50
Loaded 9232482 distances
dists stdev: 862.93
bandwidth h: 18.49
locations: 3038
customers: 3038
p: 900
Elapsed time: 158 ms

[INFO] Instance loaded
loc_max_id: 3038
loc_cnt: 3038
service: p3038_900
cust_max_id: 3038
cust_cnt: 3038
unweighted obj function
p: 900
total_demand: 155824.00


Default row names c1, c2 ... being created.
-------------------------------------------------
-------------------------------------------------
    EXACT_CPMP_BIN
-------------------------------------------------
Version identifier: 22.1.1.0 | 2022-11-28 | 9160aff4d
CPXPARAM_TimeLimit                               3600
Tried aggregator 1 time.
Presolve has eliminated 0 rows and 0 columns...
Reduced MIP has 6077 rows, 9232482 columns, and 18464964 nonzeros.
Reduced MIP has 9232482 binaries, 0 generals, 0 SOSs, and 0 indicators.
Presolve time = 38.68 sec. (16445.21 ticks)
Tried aggregator 1 time.
Presolve has eliminated 0 rows and 0 columns...
Detecting symmetries...
Reduced MIP has 6077 rows, 9232482 columns, and 18464964 nonzeros.
Reduced MIP has 9232482 binaries, 0 generals, 0 SOSs, and 0 indicators.
Presolve time = 59.03 sec. (18570.07 ticks)
Probing time = 22.37 sec. (2185.65 ticks)
Clique table members: 9232482.
MIP emphasis: balance optimality and feasibility.
MIP search method: dynamic search.
Parallel mode: deterministic, using up to 32 threads.
Root relaxation solution time = 68.95 sec. (15912.23 ticks)

        Nodes                                         Cuts/
   Node  Left     Objective  IInf  Best Integer    Best Bound    ItCnt     Gap

*     0+    0                      2635879.5894        0.0000           100.00%
*     0+    0                      2456175.3345        0.0000           100.00%
*     0+    0                      2312163.9632        0.0000           100.00%
*     0+    0                      2162323.6908        0.0000           100.00%
*     0+    0                      2041446.3873        0.0000           100.00%
      0     0       -0.0000  2806  2041446.3873        0.0000     2855  100.00%
*     0+    0                      2004287.7778        0.0000           100.00%
*     0+    0                      1973195.4095        0.0000           100.00%
      0     0    43087.2775  3668  1973195.4095    Cuts: 1619     6075   97.82%
      0     0    67735.0364  4832  1973195.4095    Cuts: 1619     8914   96.57%
      0     0    76551.0134  5144  1973195.4095    Cuts: 1619    11285   96.12%
*     0+    0                      1973018.3982    76551.0134            96.12%
*     0+    0                      1950371.6290    76551.0134            96.08%
      0     0    79068.3988  4881  1950371.6290    Cuts: 1619    13448   95.95%
      0     0    84889.6967  5140  1950371.6290    Cuts: 1619    15772   95.65%
Detecting symmetries...
      0     0    87799.0602  5105  1950371.6290    Cuts: 1619    17946   95.50%
      0     0    89460.2521  4974  1950371.6290    Cuts: 1619    20261   95.41%
*     0+    0                       247101.1093    89460.2521            63.80%
      0     0    90309.5024  4593   247101.1093    Cuts: 1619    22374   63.45%
*     0+    0                       210557.2165    90309.5024            57.11%
      0     0    90865.4242  4561   210557.2165    Cuts: 1432    24379   56.85%
*     0+    0                       169085.3960    90865.4242            46.26%
      0     0    91189.6143  4907   169085.3960    Cuts: 1083    26071   46.07%
*     0+    0                       154417.1462    91189.6143            40.95%
      0     0    91391.7826  3966   154417.1462     Cuts: 877    27276   40.82%
*     0+    0                       150342.9743    91391.7826            39.21%
      0     0    91518.9364  4316   150342.9743     Cuts: 583    28452   39.13%
*     0+    0                       105564.8425    91518.9364            13.31%
      0     0  -1.00000e+75     0   105564.8425    91518.9364    28452   13.31%
      0     0    91604.3463  4216   105564.8425     Cuts: 515    29286   13.22%
      0     0    91662.0573  4071   105564.8425     Cuts: 366    29971   13.17%
      0     0    91696.2035  4439   105564.8425     Cuts: 262    30471   13.14%
      0     0    91732.0402  4178   105564.8425     Cuts: 211    30833   13.10%
      0     0    91747.4975  3816   105564.8425     Cuts: 154    31175   13.09%
*     0+    0                       100428.7048    91747.4975             8.64%
*     0+    0                        99822.9346    91747.4975             8.09%
      0     0    91757.7074  4028    99822.9346     Cuts: 145    31411    8.08%
Advanced basis not built.

Clique cuts applied:  2902
Cover cuts applied:  6820
Flow cuts applied:  333
Mixed integer rounding cuts applied:  809
Zero-half cuts applied:  1658

Root node processing (before b&c):
  Real time             = 3606.88 sec. (2102562.23 ticks)
Parallel b&c, 32 threads:
  Real time             =    0.00 sec. (0.00 ticks)
  Sync time (average)   =    0.00 sec.
  Wait time (average)   =    0.00 sec.
                          ------------
Total (root+branch&cut) = 3606.88 sec. (2102562.23 ticks)
[INFO] Saving variables cplex:
./outputs/solutions/2024-08-26_LIT/VarsValues_cplex/test_lit_p3038_900_CPMP_Vars_Bin_p_900_EXACT_CPMP_BIN.txt
[INFO] Saving results cplex: 
./outputs/solutions/2024-08-26_LIT/Results_cplex/test_lit_p3038_900_Bin_EXACT_CPMP_BIN.csv

Final solution CPMP:
p locations: 3034 3026 3015 3000 2997 2985 2981 2970 2967 2965 2955 2948 2941 2937 2933 2928 2926 2922 2914 2908 2902 2901 2893 2889 2884 2881 2872 2869 2863 2857 2845 2839 2835 2833 2829 2825 2810 2807 2805 2801 2799 2796 2790 2782 2780 2766 2757 2754 2749 2746 2742 2738 2730 2726 2713 2701 2692 2690 2682 2679 2677 2671 2665 2661 2657 2654 2650 2646 2643 2638 2629 2624 2620 2617 2609 2601 2598 2595 2587 2584 2583 2574 2573 2563 2558 2555 2545 2538 2529 2527 2520 2512 2509 2507 2499 2497 2495 2484 2480 2466 2462 2451 2447 2443 2439 2435 2428 2419 2417 2415 2412 2400 2395 2380 2377 2374 2585 1092 2582 1089 380 1084 375 2575 1082 1079 370 1788 1053 1042 333 2531 1038 1026 1018 1727 2503 1010 1719 1003 2493 1000 291 992 980 971 2457 964 955 246 947 1656 945 2433 940 2358 936 916 207 912 908 2326 2399 906 900 2391 898 1607 2385 892 2382 889 1598 882 1591 867 158 863 1569 846 1555 2330 837 1546 2255 834 2252 825 1609 116 87 789 787 779 70 758 3035 49 2568 1075 366 738 736 2154 1071 734 731 22 1434 722 710 1041 2197 704 699 2117 683 679 671 1380 668 2870 1377 2076 657 654 2478 985 2066 646 2848 1355 640 2468 975 638 635 2053 2459 966 257 2122 629 959 250 622 614 612 2030 2025 597 932 1641 2350 589 2414 921 584 581 2407 914 574 572 1990 2388 895 558 2760 1267 554 1966 539 1248 536 750 3027 41 413 239 406 2570 1077 403 903 566 1275 229 154 1647 219 52 761 216 1634 2343 2553 1060 351 386 551 1969 214 1632 886 1056 45 1664 171 1589 1992 499 1917 325 233 398 152 2279 319 1737 145 1637 144 2271 814 1523 477 806 132 841 1550 546 1255 209 878 204 1622 1057 1766 46 717 1426 794 2212 2542 1049 712 3 241 2037 544 190 2317 3018 32 2159 2363 870 1579 533 688 3012 26 2715 1222 771 2973 1480 1852 39 2950 1457 2166 696 356 753 2171 156 1574 2490 997 323 1032 1741 77 2204 842 1586 675 2514 1021 10 2137 200 121 625 3021 1528 35 744 1453 616 2034 988 446 692 1401 3004 18 55 764 562 2764 1271 67 2978 1485 486 149 858 74 1567 2276 820 1976 483 243 168 1661 677 844 507 1096 387 1805 1465 82 419 1837 124 1337 90 799 2424 931 1640 2349 127 927 253 1671 95 766 1475 2184 429 2631 1138 1675 182 1600 2179 686 1395 2104 179 516 2718 1225 777 103 2230 774 437 1146 1855 1680 187 354 279 1772 782 1491 108 817 784 120 1613 192 529 2731 1238 1307 261 263 602 1311 2020 1758 265 1762 269 274 1692 293 1711 296 300 225 1718 130 467 1176 1350 304 134 471 308 314 664 1745 831 3033 1540 756 2249 494 330 255 1748 1007 1015 231 1724 341 6 343 510 345 849 1558 175 100 1593 512 358 1067 525 1943 1035 361 2200 707 378 393 1069 395 409 1118 1135 1936 443 448 112 449 1867 451 2283 790 453 456 1874 1171 802 1958 465 1174 2304 811 474 143 1561 828 491 416 1909 159 2286 1210 426 1919 514 2591 1098 1103 2599 1106 1109 2606 1113 2613 1120 1829 1123 1126 1133 349 1842 1141 1144 1151 1154 1156 1159 1163 1872 1166 1169 1179 2674 1181 1185 1894 2686 1193 1196 1198 2697 1204 1913 1207 423 1916 2705 1212 1921 2707 1214 1217 2721 1228 1232 1235 2736 1243 2739 1246 462 1955 1250 2751 1258 1265 1269 2770 1277 1986 2773 1280 496 1989 2777 1284 1291 1295 1300 1302 518 2011 2803 1310 1315 1318 2813 1320 1322 1326 2822 1329 1333 1341 2050 2838 1345 2841 1348 2057 2852 1359 2068 2861 1368 2865 1372 1375 2876 1383 2878 1385 2094 1387 2096 1390 1398 1403 619 2112 1406 1410 1414 1418 1420 2129 1423 2132 2932 1439 2148 2935 1442 658 2151 2939 1446 1449 2953 1460 2169 1468 1481 1489 2987 1 1494 4 1497 1501 1506 3002 1509 725 2218 1516 1517 2226 1527 2236 1531 2240 3029 1536 2245 1544 1547 85 1578 1582 110 1603 819 2312 1616 2325 1619 1629 1644 860 2353 1650 165 1658 1666 1669 184 1677 1686 195 1688 1699 1703 212 1705 1708 1713 236 1729 1738 1740 1752 1753 1768 1770 1775 288 1781 1783 1790 299 1792 1794 1800 310 1803 1808 1814 327 1820 1828 340 1833 1840 1845 1848 1858 1862 1870 1877 1881 1884 1897 1900 1903 1908 1911 434 1927 1938 1945 1948 1953 1963 1965 1971 480 1973 1983 501 1994 504 1997 2001 513 2006 2008 521 2014 540 2033 548 2041 2062 577 2070 2073 2079 2080 592 2085 595 2088 598 2091 2098 607 2100 2108 2111 628 2121 641 2134 648 2141 2144 2163 2175 2178 2186 2211 728 2221 2223 2233 749 2242 2263 2266 2274 796 2289 2297 2305 2315 2329 2333 2340 2361 2364 876 2369 2372 
p size: 900
objective: 99822.934570847777650
sum (dij * xij) 
demand/capacity: 155824.000000000000000/194400
Solution is Feasible
Statistics:
Max distance: 557.458518636140298
Min distance: 0.000000000000000
Avg distance: 32.858108811997290
Std deviation distance: 30.692233825967378


Final total elapsed time: 3651s
[INFO] Saving assignment: ./outputs/solutions/2024-08-26_LIT/Assignments/test_lit_p3038_900_p_900_EXACT_CPMP_BIN.txt
[INFO] Saving results: ./outputs/solutions/2024-08-26_LIT/test_lit_p3038_900_results_EXACT_CPMP_BIN.csv
[INFO] Saving all results: ./outputs/solutions/test_all_results.csv
Post Optimization: null


-------------------------------------------------
Post Optimization
-------------------------------------------------
method: null
-------------------------------------------------
Time for post-optimization: -51.000000000000000s
PostOptimization constructor
p locations: 3034 3026 3015 3000 2997 2985 2981 2970 2967 2965 2955 2948 2941 2937 2933 2928 2926 2922 2914 2908 2902 2901 2893 2889 2884 2881 2872 2869 2863 2857 2845 2839 2835 2833 2829 2825 2810 2807 2805 2801 2799 2796 2790 2782 2780 2766 2757 2754 2749 2746 2742 2738 2730 2726 2713 2701 2692 2690 2682 2679 2677 2671 2665 2661 2657 2654 2650 2646 2643 2638 2629 2624 2620 2617 2609 2601 2598 2595 2587 2584 2583 2574 2573 2563 2558 2555 2545 2538 2529 2527 2520 2512 2509 2507 2499 2497 2495 2484 2480 2466 2462 2451 2447 2443 2439 2435 2428 2419 2417 2415 2412 2400 2395 2380 2377 2374 2585 1092 2582 1089 380 1084 375 2575 1082 1079 370 1788 1053 1042 333 2531 1038 1026 1018 1727 2503 1010 1719 1003 2493 1000 291 992 980 971 2457 964 955 246 947 1656 945 2433 940 2358 936 916 207 912 908 2326 2399 906 900 2391 898 1607 2385 892 2382 889 1598 882 1591 867 158 863 1569 846 1555 2330 837 1546 2255 834 2252 825 1609 116 87 789 787 779 70 758 3035 49 2568 1075 366 738 736 2154 1071 734 731 22 1434 722 710 1041 2197 704 699 2117 683 679 671 1380 668 2870 1377 2076 657 654 2478 985 2066 646 2848 1355 640 2468 975 638 635 2053 2459 966 257 2122 629 959 250 622 614 612 2030 2025 597 932 1641 2350 589 2414 921 584 581 2407 914 574 572 1990 2388 895 558 2760 1267 554 1966 539 1248 536 750 3027 41 413 239 406 2570 1077 403 903 566 1275 229 154 1647 219 52 761 216 1634 2343 2553 1060 351 386 551 1969 214 1632 886 1056 45 1664 171 1589 1992 499 1917 325 233 398 152 2279 319 1737 145 1637 144 2271 814 1523 477 806 132 841 1550 546 1255 209 878 204 1622 1057 1766 46 717 1426 794 2212 2542 1049 712 3 241 2037 544 190 2317 3018 32 2159 2363 870 1579 533 688 3012 26 2715 1222 771 2973 1480 1852 39 2950 1457 2166 696 356 753 2171 156 1574 2490 997 323 1032 1741 77 2204 842 1586 675 2514 1021 10 2137 200 121 625 3021 1528 35 744 1453 616 2034 988 446 692 1401 3004 18 55 764 562 2764 1271 67 2978 1485 486 149 858 74 1567 2276 820 1976 483 243 168 1661 677 844 507 1096 387 1805 1465 82 419 1837 124 1337 90 799 2424 931 1640 2349 127 927 253 1671 95 766 1475 2184 429 2631 1138 1675 182 1600 2179 686 1395 2104 179 516 2718 1225 777 103 2230 774 437 1146 1855 1680 187 354 279 1772 782 1491 108 817 784 120 1613 192 529 2731 1238 1307 261 263 602 1311 2020 1758 265 1762 269 274 1692 293 1711 296 300 225 1718 130 467 1176 1350 304 134 471 308 314 664 1745 831 3033 1540 756 2249 494 330 255 1748 1007 1015 231 1724 341 6 343 510 345 849 1558 175 100 1593 512 358 1067 525 1943 1035 361 2200 707 378 393 1069 395 409 1118 1135 1936 443 448 112 449 1867 451 2283 790 453 456 1874 1171 802 1958 465 1174 2304 811 474 143 1561 828 491 416 1909 159 2286 1210 426 1919 514 2591 1098 1103 2599 1106 1109 2606 1113 2613 1120 1829 1123 1126 1133 349 1842 1141 1144 1151 1154 1156 1159 1163 1872 1166 1169 1179 2674 1181 1185 1894 2686 1193 1196 1198 2697 1204 1913 1207 423 1916 2705 1212 1921 2707 1214 1217 2721 1228 1232 1235 2736 1243 2739 1246 462 1955 1250 2751 1258 1265 1269 2770 1277 1986 2773 1280 496 1989 2777 1284 1291 1295 1300 1302 518 2011 2803 1310 1315 1318 2813 1320 1322 1326 2822 1329 1333 1341 2050 2838 1345 2841 1348 2057 2852 1359 2068 2861 1368 2865 1372 1375 2876 1383 2878 1385 2094 1387 2096 1390 1398 1403 619 2112 1406 1410 1414 1418 1420 2129 1423 2132 2932 1439 2148 2935 1442 658 2151 2939 1446 1449 2953 1460 2169 1468 1481 1489 2987 1 1494 4 1497 1501 1506 3002 1509 725 2218 1516 1517 2226 1527 2236 1531 2240 3029 1536 2245 1544 1547 85 1578 1582 110 1603 819 2312 1616 2325 1619 1629 1644 860 2353 1650 165 1658 1666 1669 184 1677 1686 195 1688 1699 1703 212 1705 1708 1713 236 1729 1738 1740 1752 1753 1768 1770 1775 288 1781 1783 1790 299 1792 1794 1800 310 1803 1808 1814 327 1820 1828 340 1833 1840 1845 1848 1858 1862 1870 1877 1881 1884 1897 1900 1903 1908 1911 434 1927 1938 1945 1948 1953 1963 1965 1971 480 1973 1983 501 1994 504 1997 2001 513 2006 2008 521 2014 540 2033 548 2041 2062 577 2070 2073 2079 2080 592 2085 595 2088 598 2091 2098 607 2100 2108 2111 628 2121 641 2134 648 2141 2144 2163 2175 2178 2186 2211 728 2221 2223 2233 749 2242 2263 2266 2274 796 2289 2297 2305 2315 2329 2333 2340 2361 2364 876 2369 2372 
p size: 900
objective: 99822.934570847777650
sum (dij * xij) 
demand/capacity: 155824.000000000000000/194400
Solution is Feasible
[INFO] Running post-optimization
Time limit: -51.000000000000000
Max size of the neigh: 2



Finishing post-optimization
p locations: 3034 3026 3015 3000 2997 2985 2981 2970 2967 2965 2955 2948 2941 2937 2933 2928 2926 2922 2914 2908 2902 2901 2893 2889 2884 2881 2872 2869 2863 2857 2845 2839 2835 2833 2829 2825 2810 2807 2805 2801 2799 2796 2790 2782 2780 2766 2757 2754 2749 2746 2742 2738 2730 2726 2713 2701 2692 2690 2682 2679 2677 2671 2665 2661 2657 2654 2650 2646 2643 2638 2629 2624 2620 2617 2609 2601 2598 2595 2587 2584 2583 2574 2573 2563 2558 2555 2545 2538 2529 2527 2520 2512 2509 2507 2499 2497 2495 2484 2480 2466 2462 2451 2447 2443 2439 2435 2428 2419 2417 2415 2412 2400 2395 2380 2377 2374 2585 1092 2582 1089 380 1084 375 2575 1082 1079 370 1788 1053 1042 333 2531 1038 1026 1018 1727 2503 1010 1719 1003 2493 1000 291 992 980 971 2457 964 955 246 947 1656 945 2433 940 2358 936 916 207 912 908 2326 2399 906 900 2391 898 1607 2385 892 2382 889 1598 882 1591 867 158 863 1569 846 1555 2330 837 1546 2255 834 2252 825 1609 116 87 789 787 779 70 758 3035 49 2568 1075 366 738 736 2154 1071 734 731 22 1434 722 710 1041 2197 704 699 2117 683 679 671 1380 668 2870 1377 2076 657 654 2478 985 2066 646 2848 1355 640 2468 975 638 635 2053 2459 966 257 2122 629 959 250 622 614 612 2030 2025 597 932 1641 2350 589 2414 921 584 581 2407 914 574 572 1990 2388 895 558 2760 1267 554 1966 539 1248 536 750 3027 41 413 239 406 2570 1077 403 903 566 1275 229 154 1647 219 52 761 216 1634 2343 2553 1060 351 386 551 1969 214 1632 886 1056 45 1664 171 1589 1992 499 1917 325 233 398 152 2279 319 1737 145 1637 144 2271 814 1523 477 806 132 841 1550 546 1255 209 878 204 1622 1057 1766 46 717 1426 794 2212 2542 1049 712 3 241 2037 544 190 2317 3018 32 2159 2363 870 1579 533 688 3012 26 2715 1222 771 2973 1480 1852 39 2950 1457 2166 696 356 753 2171 156 1574 2490 997 323 1032 1741 77 2204 842 1586 675 2514 1021 10 2137 200 121 625 3021 1528 35 744 1453 616 2034 988 446 692 1401 3004 18 55 764 562 2764 1271 67 2978 1485 486 149 858 74 1567 2276 820 1976 483 243 168 1661 677 844 507 1096 387 1805 1465 82 419 1837 124 1337 90 799 2424 931 1640 2349 127 927 253 1671 95 766 1475 2184 429 2631 1138 1675 182 1600 2179 686 1395 2104 179 516 2718 1225 777 103 2230 774 437 1146 1855 1680 187 354 279 1772 782 1491 108 817 784 120 1613 192 529 2731 1238 1307 261 263 602 1311 2020 1758 265 1762 269 274 1692 293 1711 296 300 225 1718 130 467 1176 1350 304 134 471 308 314 664 1745 831 3033 1540 756 2249 494 330 255 1748 1007 1015 231 1724 341 6 343 510 345 849 1558 175 100 1593 512 358 1067 525 1943 1035 361 2200 707 378 393 1069 395 409 1118 1135 1936 443 448 112 449 1867 451 2283 790 453 456 1874 1171 802 1958 465 1174 2304 811 474 143 1561 828 491 416 1909 159 2286 1210 426 1919 514 2591 1098 1103 2599 1106 1109 2606 1113 2613 1120 1829 1123 1126 1133 349 1842 1141 1144 1151 1154 1156 1159 1163 1872 1166 1169 1179 2674 1181 1185 1894 2686 1193 1196 1198 2697 1204 1913 1207 423 1916 2705 1212 1921 2707 1214 1217 2721 1228 1232 1235 2736 1243 2739 1246 462 1955 1250 2751 1258 1265 1269 2770 1277 1986 2773 1280 496 1989 2777 1284 1291 1295 1300 1302 518 2011 2803 1310 1315 1318 2813 1320 1322 1326 2822 1329 1333 1341 2050 2838 1345 2841 1348 2057 2852 1359 2068 2861 1368 2865 1372 1375 2876 1383 2878 1385 2094 1387 2096 1390 1398 1403 619 2112 1406 1410 1414 1418 1420 2129 1423 2132 2932 1439 2148 2935 1442 658 2151 2939 1446 1449 2953 1460 2169 1468 1481 1489 2987 1 1494 4 1497 1501 1506 3002 1509 725 2218 1516 1517 2226 1527 2236 1531 2240 3029 1536 2245 1544 1547 85 1578 1582 110 1603 819 2312 1616 2325 1619 1629 1644 860 2353 1650 165 1658 1666 1669 184 1677 1686 195 1688 1699 1703 212 1705 1708 1713 236 1729 1738 1740 1752 1753 1768 1770 1775 288 1781 1783 1790 299 1792 1794 1800 310 1803 1808 1814 327 1820 1828 340 1833 1840 1845 1848 1858 1862 1870 1877 1881 1884 1897 1900 1903 1908 1911 434 1927 1938 1945 1948 1953 1963 1965 1971 480 1973 1983 501 1994 504 1997 2001 513 2006 2008 521 2014 540 2033 548 2041 2062 577 2070 2073 2079 2080 592 2085 595 2088 598 2091 2098 607 2100 2108 2111 628 2121 641 2134 648 2141 2144 2163 2175 2178 2186 2211 728 2221 2223 2233 749 2242 2263 2266 2274 796 2289 2297 2305 2315 2329 2333 2340 2361 2364 876 2369 2372 
p size: 900
objective: 99822.934570847777650
sum (dij * xij) 
demand/capacity: 155824.000000000000000/194400
Solution is Feasible
Solution Stats
Statistics:
Max distance: 557.458518636140298
Min distance: 0.000000000000000
Avg distance: 32.858108811997290
Std deviation distance: 30.692233825967378


[INFO] Saving assignment: ./outputs/solutions/2024-08-26_LIT/Assignments/test_lit_p3038_900_p_900_EXACT_CPMP_BIN_POSTOPT.txt
[INFO] Saving results: ./outputs/solutions/2024-08-26_LIT/test_lit_p3038_900_results_EXACT_CPMP_BIN_POSTOPT.csv
[INFO] Saving all results: ./outputs/solutions/test_all_results.csv
Final total elapsed time (post opt): 3651s
Elapsed time: 3651951 ms

